38 70 95 4 62 42 14 196 145 181 82 2 47 18 94 39 50 63 106 85 7 125 10 131 109 188 78 27 123 92 29 193 30 96 115 101 86 164 69 33 66 136 61 20 157 32 187 84 130 138 152 89 26 199 171 122 177 151 124 172 57 183 43 36 52 34 169 194 139 178 176 186 189 76 146 28 97 23 127 132 113 165 54 25 195 149 15 197 71 53 119 180 73 128 41 65 117 121 134 21 93 129 45 44 75 148 182 90 137 0 49 111 60 185 168 99 72 31 51 35 100 48 24 81 1 103 114 175 98 56 158 13 17 9 173 162 91 116 150 105 159 154 80 198 74 160 22 192 126 68 79 55 147 77 156 5 12 190 184 87 46 58 8 153 104 161 174 102 67 167 108 11 112 64 155 88 191 143 59 144 107 3 19 110 170 135 163 166 179 83 141 142 37 120 133 16 40 6 118 140